Si                                      
   21.7240820200000     
    -0.5000000000000000    0.0000000000000000    0.5000000000000000
     0.0000000000000000    1.0000000000000000    1.0000000000000000
    -1.0000000000000000    1.0000000000000000    0.0000000000000000
   Si
   512
Direct
  0.0000000000000000  0.0000000000000000  0.0000000000000000
  0.0625000000000000  0.0312500000000000  0.0312500000000000
  0.0000000000000000  0.0000000000000000  0.1250000000000000
  0.0625000000000000  0.0312500000000000  0.1562500000000000
  0.0000000000000000  0.0000000000000000  0.2500000000000000
  0.0625000000000000  0.0312500000000000  0.2812500000000000
  0.0000000000000000  0.0000000000000000  0.3750000000000000
  0.0625000000000000  0.0312500000000000  0.4062500000000000
  0.0000000000000000  0.0000000000000000  0.5000000000000000
  0.0625000000000000  0.0312500000000000  0.5312500000000000
  0.0000000000000000  0.0000000000000000  0.6250000000000000
  0.0625000000000000  0.0312500000000000  0.6562500000000000
  0.0000000000000000  0.0000000000000000  0.7500000000000000
  0.0625000000000000  0.0312500000000000  0.7812500000000000
  0.0000000000000000  0.0000000000000000  0.8750000000000000
  0.0625000000000000  0.0312500000000000  0.9062500000000000
  0.0000000000000000  0.1250000000000000  0.0000000000000000
  0.0625000000000000  0.1562500000000000  0.0312500000000000
  0.0000000000000000  0.1250000000000000  0.1250000000000000
  0.0625000000000000  0.1562500000000000  0.1562500000000000
  0.0000000000000000  0.1250000000000000  0.2500000000000000
  0.0625000000000000  0.1562500000000000  0.2812500000000000
  0.0000000000000000  0.1250000000000000  0.3750000000000000
  0.0625000000000000  0.1562500000000000  0.4062500000000000
  0.0000000000000000  0.1250000000000000  0.5000000000000000
  0.0625000000000000  0.1562500000000000  0.5312500000000000
  0.0000000000000000  0.1250000000000000  0.6250000000000000
  0.0625000000000000  0.1562500000000000  0.6562500000000000
  0.0000000000000000  0.1250000000000000  0.7500000000000000
  0.0625000000000000  0.1562500000000000  0.7812500000000000
  0.0000000000000000  0.1250000000000000  0.8750000000000000
  0.0625000000000000  0.1562500000000000  0.9062500000000000
  0.0000000000000000  0.2500000000000000  0.0000000000000000
  0.0625000000000000  0.2812500000000000  0.0312500000000000
  0.0000000000000000  0.2500000000000000  0.1250000000000000
  0.0625000000000000  0.2812500000000000  0.1562500000000000
  0.0000000000000000  0.2500000000000000  0.2500000000000000
  0.0625000000000000  0.2812500000000000  0.2812500000000000
  0.0000000000000000  0.2500000000000000  0.3750000000000000
  0.0625000000000000  0.2812500000000000  0.4062500000000000
  0.0000000000000000  0.2500000000000000  0.5000000000000000
  0.0625000000000000  0.2812500000000000  0.5312500000000000
  0.0000000000000000  0.2500000000000000  0.6250000000000000
  0.0625000000000000  0.2812500000000000  0.6562500000000000
  0.0000000000000000  0.2500000000000000  0.7500000000000000
  0.0625000000000000  0.2812500000000000  0.7812500000000000
  0.0000000000000000  0.2500000000000000  0.8750000000000000
  0.0625000000000000  0.2812500000000000  0.9062500000000000
  0.0000000000000000  0.3750000000000000  0.0000000000000000
  0.0625000000000000  0.4062500000000000  0.0312500000000000
  0.0000000000000000  0.3750000000000000  0.1250000000000000
  0.0625000000000000  0.4062500000000000  0.1562500000000000
  0.0000000000000000  0.3750000000000000  0.2500000000000000
  0.0625000000000000  0.4062500000000000  0.2812500000000000
  0.0000000000000000  0.3750000000000000  0.3750000000000000
  0.0625000000000000  0.4062500000000000  0.4062500000000000
  0.0000000000000000  0.3750000000000000  0.5000000000000000
  0.0625000000000000  0.4062500000000000  0.5312500000000000
  0.0000000000000000  0.3750000000000000  0.6250000000000000
  0.0625000000000000  0.4062500000000000  0.6562500000000000
  0.0000000000000000  0.3750000000000000  0.7500000000000000
  0.0625000000000000  0.4062500000000000  0.7812500000000000
  0.0000000000000000  0.3750000000000000  0.8750000000000000
  0.0625000000000000  0.4062500000000000  0.9062500000000000
  0.0000000000000000  0.5000000000000000  0.0000000000000000
  0.0625000000000000  0.5312500000000000  0.0312500000000000
  0.0000000000000000  0.5000000000000000  0.1250000000000000
  0.0625000000000000  0.5312500000000000  0.1562500000000000
  0.0000000000000000  0.5000000000000000  0.2500000000000000
  0.0625000000000000  0.5312500000000000  0.2812500000000000
  0.0000000000000000  0.5000000000000000  0.3750000000000000
  0.0625000000000000  0.5312500000000000  0.4062500000000000
  0.0000000000000000  0.5000000000000000  0.5000000000000000
  0.0625000000000000  0.5312500000000000  0.5312500000000000
  0.0000000000000000  0.5000000000000000  0.6250000000000000
  0.0625000000000000  0.5312500000000000  0.6562500000000000
  0.0000000000000000  0.5000000000000000  0.7500000000000000
  0.0625000000000000  0.5312500000000000  0.7812500000000000
  0.0000000000000000  0.5000000000000000  0.8750000000000000
  0.0625000000000000  0.5312500000000000  0.9062500000000000
  0.0000000000000000  0.6250000000000000  0.0000000000000000
  0.0625000000000000  0.6562500000000000  0.0312500000000000
  0.0000000000000000  0.6250000000000000  0.1250000000000000
  0.0625000000000000  0.6562500000000000  0.1562500000000000
  0.0000000000000000  0.6250000000000000  0.2500000000000000
  0.0625000000000000  0.6562500000000000  0.2812500000000000
  0.0000000000000000  0.6250000000000000  0.3750000000000000
  0.0625000000000000  0.6562500000000000  0.4062500000000000
  0.0000000000000000  0.6250000000000000  0.5000000000000000
  0.0625000000000000  0.6562500000000000  0.5312500000000000
  0.0000000000000000  0.6250000000000000  0.6250000000000000
  0.0625000000000000  0.6562500000000000  0.6562500000000000
  0.0000000000000000  0.6250000000000000  0.7500000000000000
  0.0625000000000000  0.6562500000000000  0.7812500000000000
  0.0000000000000000  0.6250000000000000  0.8750000000000000
  0.0625000000000000  0.6562500000000000  0.9062500000000000
  0.0000000000000000  0.7500000000000000  0.0000000000000000
  0.0625000000000000  0.7812500000000000  0.0312500000000000
  0.0000000000000000  0.7500000000000000  0.1250000000000000
  0.0625000000000000  0.7812500000000000  0.1562500000000000
  0.0000000000000000  0.7500000000000000  0.2500000000000000
  0.0625000000000000  0.7812500000000000  0.2812500000000000
  0.0000000000000000  0.7500000000000000  0.3750000000000000
  0.0625000000000000  0.7812500000000000  0.4062500000000000
  0.0000000000000000  0.7500000000000000  0.5000000000000000
  0.0625000000000000  0.7812500000000000  0.5312500000000000
  0.0000000000000000  0.7500000000000000  0.6250000000000000
  0.0625000000000000  0.7812500000000000  0.6562500000000000
  0.0000000000000000  0.7500000000000000  0.7500000000000000
  0.0625000000000000  0.7812500000000000  0.7812500000000000
  0.0000000000000000  0.7500000000000000  0.8750000000000000
  0.0625000000000000  0.7812500000000000  0.9062500000000000
  0.0000000000000000  0.8750000000000000  0.0000000000000000
  0.0625000000000000  0.9062500000000000  0.0312500000000000
  0.0000000000000000  0.8750000000000000  0.1250000000000000
  0.0625000000000000  0.9062500000000000  0.1562500000000000
  0.0000000000000000  0.8750000000000000  0.2500000000000000
  0.0625000000000000  0.9062500000000000  0.2812500000000000
  0.0000000000000000  0.8750000000000000  0.3750000000000000
  0.0625000000000000  0.9062500000000000  0.4062500000000000
  0.0000000000000000  0.8750000000000000  0.5000000000000000
  0.0625000000000000  0.9062500000000000  0.5312500000000000
  0.0000000000000000  0.8750000000000000  0.6250000000000000
  0.0625000000000000  0.9062500000000000  0.6562500000000000
  0.0000000000000000  0.8750000000000000  0.7500000000000000
  0.0625000000000000  0.9062500000000000  0.7812500000000000
  0.0000000000000000  0.8750000000000000  0.8750000000000000
  0.0625000000000000  0.9062500000000000  0.9062500000000000
  0.2500000000000000  0.0000000000000000  0.0000000000000000
  0.3125000000000000  0.0312500000000000  0.0312500000000000
  0.2500000000000000  0.0000000000000000  0.1250000000000000
  0.3125000000000000  0.0312500000000000  0.1562500000000000
  0.2500000000000000  0.0000000000000000  0.2500000000000000
  0.3125000000000000  0.0312500000000000  0.2812500000000000
  0.2500000000000000  0.0000000000000000  0.3750000000000000
  0.3125000000000000  0.0312500000000000  0.4062500000000000
  0.2500000000000000  0.0000000000000000  0.5000000000000000
  0.3125000000000000  0.0312500000000000  0.5312500000000000
  0.2500000000000000  0.0000000000000000  0.6250000000000000
  0.3125000000000000  0.0312500000000000  0.6562500000000000
  0.2500000000000000  0.0000000000000000  0.7500000000000000
  0.3125000000000000  0.0312500000000000  0.7812500000000000
  0.2500000000000000  0.0000000000000000  0.8750000000000000
  0.3125000000000000  0.0312500000000000  0.9062500000000000
  0.2500000000000000  0.1250000000000000  0.0000000000000000
  0.3125000000000000  0.1562500000000000  0.0312500000000000
  0.2500000000000000  0.1250000000000000  0.1250000000000000
  0.3125000000000000  0.1562500000000000  0.1562500000000000
  0.2500000000000000  0.1250000000000000  0.2500000000000000
  0.3125000000000000  0.1562500000000000  0.2812500000000000
  0.2500000000000000  0.1250000000000000  0.3750000000000000
  0.3125000000000000  0.1562500000000000  0.4062500000000000
  0.2500000000000000  0.1250000000000000  0.5000000000000000
  0.3125000000000000  0.1562500000000000  0.5312500000000000
  0.2500000000000000  0.1250000000000000  0.6250000000000000
  0.3125000000000000  0.1562500000000000  0.6562500000000000
  0.2500000000000000  0.1250000000000000  0.7500000000000000
  0.3125000000000000  0.1562500000000000  0.7812500000000000
  0.2500000000000000  0.1250000000000000  0.8750000000000000
  0.3125000000000000  0.1562500000000000  0.9062500000000000
  0.2500000000000000  0.2500000000000000  0.0000000000000000
  0.3125000000000000  0.2812500000000000  0.0312500000000000
  0.2500000000000000  0.2500000000000000  0.1250000000000000
  0.3125000000000000  0.2812500000000000  0.1562500000000000
  0.2500000000000000  0.2500000000000000  0.2500000000000000
  0.3125000000000000  0.2812500000000000  0.2812500000000000
  0.2500000000000000  0.2500000000000000  0.3750000000000000
  0.3125000000000000  0.2812500000000000  0.4062500000000000
  0.2500000000000000  0.2500000000000000  0.5000000000000000
  0.3125000000000000  0.2812500000000000  0.5312500000000000
  0.2500000000000000  0.2500000000000000  0.6250000000000000
  0.3125000000000000  0.2812500000000000  0.6562500000000000
  0.2500000000000000  0.2500000000000000  0.7500000000000000
  0.3125000000000000  0.2812500000000000  0.7812500000000000
  0.2500000000000000  0.2500000000000000  0.8750000000000000
  0.3125000000000000  0.2812500000000000  0.9062500000000000
  0.2500000000000000  0.3750000000000000  0.0000000000000000
  0.3125000000000000  0.4062500000000000  0.0312500000000000
  0.2500000000000000  0.3750000000000000  0.1250000000000000
  0.3125000000000000  0.4062500000000000  0.1562500000000000
  0.2500000000000000  0.3750000000000000  0.2500000000000000
  0.3125000000000000  0.4062500000000000  0.2812500000000000
  0.2500000000000000  0.3750000000000000  0.3750000000000000
  0.3125000000000000  0.4062500000000000  0.4062500000000000
  0.2500000000000000  0.3750000000000000  0.5000000000000000
  0.3125000000000000  0.4062500000000000  0.5312500000000000
  0.2500000000000000  0.3750000000000000  0.6250000000000000
  0.3125000000000000  0.4062500000000000  0.6562500000000000
  0.2500000000000000  0.3750000000000000  0.7500000000000000
  0.3125000000000000  0.4062500000000000  0.7812500000000000
  0.2500000000000000  0.3750000000000000  0.8750000000000000
  0.3125000000000000  0.4062500000000000  0.9062500000000000
  0.2500000000000000  0.5000000000000000  0.0000000000000000
  0.3125000000000000  0.5312500000000000  0.0312500000000000
  0.2500000000000000  0.5000000000000000  0.1250000000000000
  0.3125000000000000  0.5312500000000000  0.1562500000000000
  0.2500000000000000  0.5000000000000000  0.2500000000000000
  0.3125000000000000  0.5312500000000000  0.2812500000000000
  0.2500000000000000  0.5000000000000000  0.3750000000000000
  0.3125000000000000  0.5312500000000000  0.4062500000000000
  0.2500000000000000  0.5000000000000000  0.5000000000000000
  0.3125000000000000  0.5312500000000000  0.5312500000000000
  0.2500000000000000  0.5000000000000000  0.6250000000000000
  0.3125000000000000  0.5312500000000000  0.6562500000000000
  0.2500000000000000  0.5000000000000000  0.7500000000000000
  0.3125000000000000  0.5312500000000000  0.7812500000000000
  0.2500000000000000  0.5000000000000000  0.8750000000000000
  0.3125000000000000  0.5312500000000000  0.9062500000000000
  0.2500000000000000  0.6250000000000000  0.0000000000000000
  0.3125000000000000  0.6562500000000000  0.0312500000000000
  0.2500000000000000  0.6250000000000000  0.1250000000000000
  0.3125000000000000  0.6562500000000000  0.1562500000000000
  0.2500000000000000  0.6250000000000000  0.2500000000000000
  0.3125000000000000  0.6562500000000000  0.2812500000000000
  0.2500000000000000  0.6250000000000000  0.3750000000000000
  0.3125000000000000  0.6562500000000000  0.4062500000000000
  0.2500000000000000  0.6250000000000000  0.5000000000000000
  0.3125000000000000  0.6562500000000000  0.5312500000000000
  0.2500000000000000  0.6250000000000000  0.6250000000000000
  0.3125000000000000  0.6562500000000000  0.6562500000000000
  0.2500000000000000  0.6250000000000000  0.7500000000000000
  0.3125000000000000  0.6562500000000000  0.7812500000000000
  0.2500000000000000  0.6250000000000000  0.8750000000000000
  0.3125000000000000  0.6562500000000000  0.9062500000000000
  0.2500000000000000  0.7500000000000000  0.0000000000000000
  0.3125000000000000  0.7812500000000000  0.0312500000000000
  0.2500000000000000  0.7500000000000000  0.1250000000000000
  0.3125000000000000  0.7812500000000000  0.1562500000000000
  0.2500000000000000  0.7500000000000000  0.2500000000000000
  0.3125000000000000  0.7812500000000000  0.2812500000000000
  0.2500000000000000  0.7500000000000000  0.3750000000000000
  0.3125000000000000  0.7812500000000000  0.4062500000000000
  0.2500000000000000  0.7500000000000000  0.5000000000000000
  0.3125000000000000  0.7812500000000000  0.5312500000000000
  0.2500000000000000  0.7500000000000000  0.6250000000000000
  0.3125000000000000  0.7812500000000000  0.6562500000000000
  0.2500000000000000  0.7500000000000000  0.7500000000000000
  0.3125000000000000  0.7812500000000000  0.7812500000000000
  0.2500000000000000  0.7500000000000000  0.8750000000000000
  0.3125000000000000  0.7812500000000000  0.9062500000000000
  0.2500000000000000  0.8750000000000000  0.0000000000000000
  0.3125000000000000  0.9062500000000000  0.0312500000000000
  0.2500000000000000  0.8750000000000000  0.1250000000000000
  0.3125000000000000  0.9062500000000000  0.1562500000000000
  0.2500000000000000  0.8750000000000000  0.2500000000000000
  0.3125000000000000  0.9062500000000000  0.2812500000000000
  0.2500000000000000  0.8750000000000000  0.3750000000000000
  0.3125000000000000  0.9062500000000000  0.4062500000000000
  0.2500000000000000  0.8750000000000000  0.5000000000000000
  0.3125000000000000  0.9062500000000000  0.5312500000000000
  0.2500000000000000  0.8750000000000000  0.6250000000000000
  0.3125000000000000  0.9062500000000000  0.6562500000000000
  0.2500000000000000  0.8750000000000000  0.7500000000000000
  0.3125000000000000  0.9062500000000000  0.7812500000000000
  0.2500000000000000  0.8750000000000000  0.8750000000000000
  0.3125000000000000  0.9062500000000000  0.9062500000000000
  0.5000000000000000  0.0000000000000000  0.0000000000000000
  0.5625000000000000  0.0312500000000000  0.0312500000000000
  0.5000000000000000  0.0000000000000000  0.1250000000000000
  0.5625000000000000  0.0312500000000000  0.1562500000000000
  0.5000000000000000  0.0000000000000000  0.2500000000000000
  0.5625000000000000  0.0312500000000000  0.2812500000000000
  0.5000000000000000  0.0000000000000000  0.3750000000000000
  0.5625000000000000  0.0312500000000000  0.4062500000000000
  0.5000000000000000  0.0000000000000000  0.5000000000000000
  0.5625000000000000  0.0312500000000000  0.5312500000000000
  0.5000000000000000  0.0000000000000000  0.6250000000000000
  0.5625000000000000  0.0312500000000000  0.6562500000000000
  0.5000000000000000  0.0000000000000000  0.7500000000000000
  0.5625000000000000  0.0312500000000000  0.7812500000000000
  0.5000000000000000  0.0000000000000000  0.8750000000000000
  0.5625000000000000  0.0312500000000000  0.9062500000000000
  0.5000000000000000  0.1250000000000000  0.0000000000000000
  0.5625000000000000  0.1562500000000000  0.0312500000000000
  0.5000000000000000  0.1250000000000000  0.1250000000000000
  0.5625000000000000  0.1562500000000000  0.1562500000000000
  0.5000000000000000  0.1250000000000000  0.2500000000000000
  0.5625000000000000  0.1562500000000000  0.2812500000000000
  0.5000000000000000  0.1250000000000000  0.3750000000000000
  0.5625000000000000  0.1562500000000000  0.4062500000000000
  0.5000000000000000  0.1250000000000000  0.5000000000000000
  0.5625000000000000  0.1562500000000000  0.5312500000000000
  0.5000000000000000  0.1250000000000000  0.6250000000000000
  0.5625000000000000  0.1562500000000000  0.6562500000000000
  0.5000000000000000  0.1250000000000000  0.7500000000000000
  0.5625000000000000  0.1562500000000000  0.7812500000000000
  0.5000000000000000  0.1250000000000000  0.8750000000000000
  0.5625000000000000  0.1562500000000000  0.9062500000000000
  0.5000000000000000  0.2500000000000000  0.0000000000000000
  0.5625000000000000  0.2812500000000000  0.0312500000000000
  0.5000000000000000  0.2500000000000000  0.1250000000000000
  0.5625000000000000  0.2812500000000000  0.1562500000000000
  0.5000000000000000  0.2500000000000000  0.2500000000000000
  0.5625000000000000  0.2812500000000000  0.2812500000000000
  0.5000000000000000  0.2500000000000000  0.3750000000000000
  0.5625000000000000  0.2812500000000000  0.4062500000000000
  0.5000000000000000  0.2500000000000000  0.5000000000000000
  0.5625000000000000  0.2812500000000000  0.5312500000000000
  0.5000000000000000  0.2500000000000000  0.6250000000000000
  0.5625000000000000  0.2812500000000000  0.6562500000000000
  0.5000000000000000  0.2500000000000000  0.7500000000000000
  0.5625000000000000  0.2812500000000000  0.7812500000000000
  0.5000000000000000  0.2500000000000000  0.8750000000000000
  0.5625000000000000  0.2812500000000000  0.9062500000000000
  0.5000000000000000  0.3750000000000000  0.0000000000000000
  0.5625000000000000  0.4062500000000000  0.0312500000000000
  0.5000000000000000  0.3750000000000000  0.1250000000000000
  0.5625000000000000  0.4062500000000000  0.1562500000000000
  0.5000000000000000  0.3750000000000000  0.2500000000000000
  0.5625000000000000  0.4062500000000000  0.2812500000000000
  0.5000000000000000  0.3750000000000000  0.3750000000000000
  0.5625000000000000  0.4062500000000000  0.4062500000000000
  0.5000000000000000  0.3750000000000000  0.5000000000000000
  0.5625000000000000  0.4062500000000000  0.5312500000000000
  0.5000000000000000  0.3750000000000000  0.6250000000000000
  0.5625000000000000  0.4062500000000000  0.6562500000000000
  0.5000000000000000  0.3750000000000000  0.7500000000000000
  0.5625000000000000  0.4062500000000000  0.7812500000000000
  0.5000000000000000  0.3750000000000000  0.8750000000000000
  0.5625000000000000  0.4062500000000000  0.9062500000000000
  0.5000000000000000  0.5000000000000000  0.0000000000000000
  0.5625000000000000  0.5312500000000000  0.0312500000000000
  0.5000000000000000  0.5000000000000000  0.1250000000000000
  0.5625000000000000  0.5312500000000000  0.1562500000000000
  0.5000000000000000  0.5000000000000000  0.2500000000000000
  0.5625000000000000  0.5312500000000000  0.2812500000000000
  0.5000000000000000  0.5000000000000000  0.3750000000000000
  0.5625000000000000  0.5312500000000000  0.4062500000000000
  0.5000000000000000  0.5000000000000000  0.5000000000000000
  0.5625000000000000  0.5312500000000000  0.5312500000000000
  0.5000000000000000  0.5000000000000000  0.6250000000000000
  0.5625000000000000  0.5312500000000000  0.6562500000000000
  0.5000000000000000  0.5000000000000000  0.7500000000000000
  0.5625000000000000  0.5312500000000000  0.7812500000000000
  0.5000000000000000  0.5000000000000000  0.8750000000000000
  0.5625000000000000  0.5312500000000000  0.9062500000000000
  0.5000000000000000  0.6250000000000000  0.0000000000000000
  0.5625000000000000  0.6562500000000000  0.0312500000000000
  0.5000000000000000  0.6250000000000000  0.1250000000000000
  0.5625000000000000  0.6562500000000000  0.1562500000000000
  0.5000000000000000  0.6250000000000000  0.2500000000000000
  0.5625000000000000  0.6562500000000000  0.2812500000000000
  0.5000000000000000  0.6250000000000000  0.3750000000000000
  0.5625000000000000  0.6562500000000000  0.4062500000000000
  0.5000000000000000  0.6250000000000000  0.5000000000000000
  0.5625000000000000  0.6562500000000000  0.5312500000000000
  0.5000000000000000  0.6250000000000000  0.6250000000000000
  0.5625000000000000  0.6562500000000000  0.6562500000000000
  0.5000000000000000  0.6250000000000000  0.7500000000000000
  0.5625000000000000  0.6562500000000000  0.7812500000000000
  0.5000000000000000  0.6250000000000000  0.8750000000000000
  0.5625000000000000  0.6562500000000000  0.9062500000000000
  0.5000000000000000  0.7500000000000000  0.0000000000000000
  0.5625000000000000  0.7812500000000000  0.0312500000000000
  0.5000000000000000  0.7500000000000000  0.1250000000000000
  0.5625000000000000  0.7812500000000000  0.1562500000000000
  0.5000000000000000  0.7500000000000000  0.2500000000000000
  0.5625000000000000  0.7812500000000000  0.2812500000000000
  0.5000000000000000  0.7500000000000000  0.3750000000000000
  0.5625000000000000  0.7812500000000000  0.4062500000000000
  0.5000000000000000  0.7500000000000000  0.5000000000000000
  0.5625000000000000  0.7812500000000000  0.5312500000000000
  0.5000000000000000  0.7500000000000000  0.6250000000000000
  0.5625000000000000  0.7812500000000000  0.6562500000000000
  0.5000000000000000  0.7500000000000000  0.7500000000000000
  0.5625000000000000  0.7812500000000000  0.7812500000000000
  0.5000000000000000  0.7500000000000000  0.8750000000000000
  0.5625000000000000  0.7812500000000000  0.9062500000000000
  0.5000000000000000  0.8750000000000000  0.0000000000000000
  0.5625000000000000  0.9062500000000000  0.0312500000000000
  0.5000000000000000  0.8750000000000000  0.1250000000000000
  0.5625000000000000  0.9062500000000000  0.1562500000000000
  0.5000000000000000  0.8750000000000000  0.2500000000000000
  0.5625000000000000  0.9062500000000000  0.2812500000000000
  0.5000000000000000  0.8750000000000000  0.3750000000000000
  0.5625000000000000  0.9062500000000000  0.4062500000000000
  0.5000000000000000  0.8750000000000000  0.5000000000000000
  0.5625000000000000  0.9062500000000000  0.5312500000000000
  0.5000000000000000  0.8750000000000000  0.6250000000000000
  0.5625000000000000  0.9062500000000000  0.6562500000000000
  0.5000000000000000  0.8750000000000000  0.7500000000000000
  0.5625000000000000  0.9062500000000000  0.7812500000000000
  0.5000000000000000  0.8750000000000000  0.8750000000000000
  0.5625000000000000  0.9062500000000000  0.9062500000000000
  0.7500000000000000  0.0000000000000000  0.0000000000000000
  0.8125000000000000  0.0312500000000000  0.0312500000000000
  0.7500000000000000  0.0000000000000000  0.1250000000000000
  0.8125000000000000  0.0312500000000000  0.1562500000000000
  0.7500000000000000  0.0000000000000000  0.2500000000000000
  0.8125000000000000  0.0312500000000000  0.2812500000000000
  0.7500000000000000  0.0000000000000000  0.3750000000000000
  0.8125000000000000  0.0312500000000000  0.4062500000000000
  0.7500000000000000  0.0000000000000000  0.5000000000000000
  0.8125000000000000  0.0312500000000000  0.5312500000000000
  0.7500000000000000  0.0000000000000000  0.6250000000000000
  0.8125000000000000  0.0312500000000000  0.6562500000000000
  0.7500000000000000  0.0000000000000000  0.7500000000000000
  0.8125000000000000  0.0312500000000000  0.7812500000000000
  0.7500000000000000  0.0000000000000000  0.8750000000000000
  0.8125000000000000  0.0312500000000000  0.9062500000000000
  0.7500000000000000  0.1250000000000000  0.0000000000000000
  0.8125000000000000  0.1562500000000000  0.0312500000000000
  0.7500000000000000  0.1250000000000000  0.1250000000000000
  0.8125000000000000  0.1562500000000000  0.1562500000000000
  0.7500000000000000  0.1250000000000000  0.2500000000000000
  0.8125000000000000  0.1562500000000000  0.2812500000000000
  0.7500000000000000  0.1250000000000000  0.3750000000000000
  0.8125000000000000  0.1562500000000000  0.4062500000000000
  0.7500000000000000  0.1250000000000000  0.5000000000000000
  0.8125000000000000  0.1562500000000000  0.5312500000000000
  0.7500000000000000  0.1250000000000000  0.6250000000000000
  0.8125000000000000  0.1562500000000000  0.6562500000000000
  0.7500000000000000  0.1250000000000000  0.7500000000000000
  0.8125000000000000  0.1562500000000000  0.7812500000000000
  0.7500000000000000  0.1250000000000000  0.8750000000000000
  0.8125000000000000  0.1562500000000000  0.9062500000000000
  0.7500000000000000  0.2500000000000000  0.0000000000000000
  0.8125000000000000  0.2812500000000000  0.0312500000000000
  0.7500000000000000  0.2500000000000000  0.1250000000000000
  0.8125000000000000  0.2812500000000000  0.1562500000000000
  0.7500000000000000  0.2500000000000000  0.2500000000000000
  0.8125000000000000  0.2812500000000000  0.2812500000000000
  0.7500000000000000  0.2500000000000000  0.3750000000000000
  0.8125000000000000  0.2812500000000000  0.4062500000000000
  0.7500000000000000  0.2500000000000000  0.5000000000000000
  0.8125000000000000  0.2812500000000000  0.5312500000000000
  0.7500000000000000  0.2500000000000000  0.6250000000000000
  0.8125000000000000  0.2812500000000000  0.6562500000000000
  0.7500000000000000  0.2500000000000000  0.7500000000000000
  0.8125000000000000  0.2812500000000000  0.7812500000000000
  0.7500000000000000  0.2500000000000000  0.8750000000000000
  0.8125000000000000  0.2812500000000000  0.9062500000000000
  0.7500000000000000  0.3750000000000000  0.0000000000000000
  0.8125000000000000  0.4062500000000000  0.0312500000000000
  0.7500000000000000  0.3750000000000000  0.1250000000000000
  0.8125000000000000  0.4062500000000000  0.1562500000000000
  0.7500000000000000  0.3750000000000000  0.2500000000000000
  0.8125000000000000  0.4062500000000000  0.2812500000000000
  0.7500000000000000  0.3750000000000000  0.3750000000000000
  0.8125000000000000  0.4062500000000000  0.4062500000000000
  0.7500000000000000  0.3750000000000000  0.5000000000000000
  0.8125000000000000  0.4062500000000000  0.5312500000000000
  0.7500000000000000  0.3750000000000000  0.6250000000000000
  0.8125000000000000  0.4062500000000000  0.6562500000000000
  0.7500000000000000  0.3750000000000000  0.7500000000000000
  0.8125000000000000  0.4062500000000000  0.7812500000000000
  0.7500000000000000  0.3750000000000000  0.8750000000000000
  0.8125000000000000  0.4062500000000000  0.9062500000000000
  0.7500000000000000  0.5000000000000000  0.0000000000000000
  0.8125000000000000  0.5312500000000000  0.0312500000000000
  0.7500000000000000  0.5000000000000000  0.1250000000000000
  0.8125000000000000  0.5312500000000000  0.1562500000000000
  0.7500000000000000  0.5000000000000000  0.2500000000000000
  0.8125000000000000  0.5312500000000000  0.2812500000000000
  0.7500000000000000  0.5000000000000000  0.3750000000000000
  0.8125000000000000  0.5312500000000000  0.4062500000000000
  0.7500000000000000  0.5000000000000000  0.5000000000000000
  0.8125000000000000  0.5312500000000000  0.5312500000000000
  0.7500000000000000  0.5000000000000000  0.6250000000000000
  0.8125000000000000  0.5312500000000000  0.6562500000000000
  0.7500000000000000  0.5000000000000000  0.7500000000000000
  0.8125000000000000  0.5312500000000000  0.7812500000000000
  0.7500000000000000  0.5000000000000000  0.8750000000000000
  0.8125000000000000  0.5312500000000000  0.9062500000000000
  0.7500000000000000  0.6250000000000000  0.0000000000000000
  0.8125000000000000  0.6562500000000000  0.0312500000000000
  0.7500000000000000  0.6250000000000000  0.1250000000000000
  0.8125000000000000  0.6562500000000000  0.1562500000000000
  0.7500000000000000  0.6250000000000000  0.2500000000000000
  0.8125000000000000  0.6562500000000000  0.2812500000000000
  0.7500000000000000  0.6250000000000000  0.3750000000000000
  0.8125000000000000  0.6562500000000000  0.4062500000000000
  0.7500000000000000  0.6250000000000000  0.5000000000000000
  0.8125000000000000  0.6562500000000000  0.5312500000000000
  0.7500000000000000  0.6250000000000000  0.6250000000000000
  0.8125000000000000  0.6562500000000000  0.6562500000000000
  0.7500000000000000  0.6250000000000000  0.7500000000000000
  0.8125000000000000  0.6562500000000000  0.7812500000000000
  0.7500000000000000  0.6250000000000000  0.8750000000000000
  0.8125000000000000  0.6562500000000000  0.9062500000000000
  0.7500000000000000  0.7500000000000000  0.0000000000000000
  0.8125000000000000  0.7812500000000000  0.0312500000000000
  0.7500000000000000  0.7500000000000000  0.1250000000000000
  0.8125000000000000  0.7812500000000000  0.1562500000000000
  0.7500000000000000  0.7500000000000000  0.2500000000000000
  0.8125000000000000  0.7812500000000000  0.2812500000000000
  0.7500000000000000  0.7500000000000000  0.3750000000000000